c 1 GPL
c 2 StrongConnect
c 3 Unweighted
c 4 Connected
c 5 Src
c 6 Wgt
c 7 MainGpl
c 8 StronglyConnected
c 9 Transpose
c 10 Directed
c 11 Edges
c 12 Cycle
c 13 BFS
c 14 MSTKruskal
c 15 DFS
c 16 Algorithms
c 17 MSTPrim
c 18 Weighted
c 19 Number
c 20 Undirected
c 21 ShortestPath
p cnf 21 45
1 0
1 -7 0
2 -9 0
2 -8 0
9 -2 0
8 -2 0
5 -13 0
5 -15 0
13 15 -5 0
-13 -15 0
6 -18 0
6 -3 0
18 3 -6 0
-18 -3 0
7 -16 0
7 -5 0
7 -6 0
7 -11 0
16 -7 0
6 -7 0
11 -7 0
11 -20 0
11 -10 0
20 10 -11 0
-20 -10 0
16 -19 0
16 -4 0
16 -2 0
16 -12 0
16 -17 0
16 -14 0
16 -21 0
19 4 2 12 17 14 21 -16 0
-12 10 0
-21 10 0
-21 18 0
-4 20 0
-4 5 0
-2 10 0
-2 15 0
-14 10 0
-14 18 0
-17 10 0
-17 18 0
-17 -14 0
